0 0 0 0
0 1 2 0
0 2 1 0
0 3 2 0
0 4 2 8
0 5 0 5
0 6 0 11
0 7 0 12
0 8 0 15
0 9 2 17
0 10 1 20
0 11 2 30
0 12 2 22
0 13 1 8
0 14 2 13
0 15 1 20
0 16 2 22
0 17 2 18
0 18 2 36
0 19 0 34
0 20 2 27
0 21 2 27
0 22 2 32
0 23 0 31
0 24 2 13
0 25 2 37
0 26 1 35
0 27 0 37
0 28 0 44
0 29 2 41
0 30 2 39
0 31 0 49
